2,2
4,2
6,3
8,4
10,6
12,7
14,9
17,1
19,3
21,5
23,7
25,9
28,1
30,4
32,6
34,8
37,0
39,2
41,4
43,6
45,8
48,0
50,2
52,4
54,6
56,9
59,1
61,3
63,5
64,9
64,9
64,9
64,9
64,9
64,9
64,9
64,9
64,9
64,9
64,9
64,9
64,9
64,9
64,9
64,9
64,9
64,9
64,9
64,9
64,9
64,9
64,9
64,9
64,9
64,9
64,9
64,9
64,9
64,9
64,9
64,9
64,9
64,9
64,9
64,9
0,0
0,0
